sat
(
(define-fun sym807 () String "K")
(define-fun sym205 () String "Y")
(define-fun sym547 () String "K")
(define-fun sym1659 () String "H")
(define-fun sym3628 () String "H")
(define-fun sym2757 () String "K")
(define-fun sym4869 () String "R")
(define-fun sym1446 () String "K")
(define-fun sym3415 () String "K")
(define-fun sym2986 () String "K")
(define-fun sym2544 () String "K")
(define-fun sym3843 () String "K")
(define-fun sym2335 () String "R")
(define-fun sym1882 () String "K")
(define-fun sym1233 () String "K")
(define-fun sym4269 () String "K")
(define-fun sym3189 () String "R")
(define-fun sym1020 () String "K")
(define-fun sym4684 () String "R")
(define-fun sym4056 () String "K")
(define-fun sym161 () String "A")
(define-fun sym2095 () String "K")
(define-fun sym4492 () String "R")
)
